tours/att48.tsp.txt
31 38 2 47 40 39 24 16 4 45 43 13 3 33 44 42 28 21 15 36 32 29 7 26 10 14 6 22 18 25 48 20 30 46 9 19 27 5 23 34 8 17 41 35 11 12 37 1
38 6 21 10 25 22 17 12 8 36 37 39 14 9 11 34 29 15 19 26 44 16 46 40 48 47 33 32 45 1 41 4 18 43 30 31 3 5 35 27 13 20 24 2 42 23 28 7
44 35 13 25 19 3 43 6 17 8 20 31 24 36 14 39 26 41 5 4 48 32 27 40 16 1 2 23 9 7 45 42 46 11 33 22 29 28 30 34 10 15 47 38 12 18 21 37
35 29 25 27 16 41 30 13 20 36 31 46 9 3 14 44 1 45 21 2 43 24 12 28 26 17 22 47 10 6 19 15 32 8 39 38 18 11 42 48 33 34 4 5 40 7 23 37
15 8 11 3 5 4 46 30 17 33 13 23 38 28 20 25 16 7 14 44 31 29 10 48 26 47 40 6 35 27 22 32 21 39 43 1 24 36 37 34 18 42 2 12 41 45 9 19
